'hugeuniform113'
150 100 100
149
144
142
141
140
139
135
134
132
132
131
129
128
125
125
122
120
119
117
115
114
113
108
108
106
106
104
104
103
94
94
94
93
92
91
90
89
89
88
87
86
81
78
77
74
72
72
71
70
68
68
63
60
60
59
55
55
54
53
51
47
47
46
45
45
39
39
39
39
37
36
36
35
35
34
34
31
30
30
29
29
28
27
26
24
22
22
20
20
19
19
16
15
13
11
11
8
7
1
0
